&bands
prefix='pwscf',
outdir='tmp'
filband='bds.out'
lp=.true.
/
