&CONTROL
    calculation='bands',
    disk_io='low',
    prefix='pwscf',
    pseudo_dir='./',
    outdir='./tmp',
    verbosity='low'
    tprnfor=.true.
    tstress=.true.
    forc_conv_thr=1.0d-5
/
&SYSTEM
    ibrav= 0,
    celldm(1) = 1.8897261328856432, ! a.u. to Angst
    nat= 2,
    ntyp= 2,
    occupations = 'smearing',
    smearing = 'gauss',
    degauss = 1.0d-9
    ecutwfc= 50
    ecutrho = 500,
/
&ELECTRONS
    electron_maxstep = 100
    conv_thr = 1.0d-9
    mixing_mode = 'plain'
    mixing_beta = 0.8d0
    mixing_ndim = 8
    diagonalization = 'david'
/
&IONS
    ion_dynamics='bfgs'
/
&CELL
    press_conv_thr=0.1
/
ATOMIC_SPECIES
  Si 1.0 Si.UPF
  C  1.0 C.UPF
CELL_PARAMETERS (alat=  1.88972613)
   2.174000000   2.174000000   0.000000000
   0.000000000   2.174000000   2.174000000
   2.174000000   0.000000000   2.174000000
ATOMIC_POSITIONS (crystal)
Si       0.000000000   0.000000000   0.000000000
C        0.250000000   0.250000000   0.250000000
K_POINTS {crystal_b}
3
0.5 0.0 0.5 30
0.0 0.0 0.0 30
0.5 0.5 0.5 1

